nK = 2636;
nT = 8;
nI = 21;
L = 29;
TT = 539;
np = 1;
nc = 3;
b = [21, 22, 52, 65, 46, 28, 63, 52, 48, 63, 65, 35, 29, 27, 38, 44, 42, 54, 22, 46, 60];
d = [95, 101, 134, 145, 134, 137, 130, 132, 144, 143, 119, 133, 130, 123, 134, 130, 66, 123, 55, 74, 129];
m = [1.3, 1.9, 2.5, 1.1, 2.1, 2.3, 2.5, 1.6, 1, 2.3, 1, 1.6, 2.5, 1.7, 1.1, 2.2, 1.6, 2, 2.5, 2.4, 2.2];
pt = [0.24, 0.22, 0.2, 0.23, 0.27, 0.35, 0.35, 0.22];
st = [13.92, 11.22, 11.8, 13.57, 12.42, 14, 17.5, 10.34];
arc = {<1, 0, 1, 1, 0, 0, 0, [1, 1, 1, 1, 1, 1, 1, 1]>, <2, 1, 2, 1, 0, 0, 0, [1, 1, 1, 1, 1, 1, 1, 1]>, <3, 2, 3, 1, 0, 0, 0, [1, 1, 1, 1, 1, 1, 1, 1]>, <4, 3, 4, 1, 0, 0, 0, [1, 1, 1, 1, 1, 1, 1, 1]>, <5, 4, 5, 1, 0, 0, 0, [1, 1, 1, 1, 1, 1, 1, 1]>, <6, 5, 6, 1, 0, 0, 0, [1, 1, 1, 1, 1, 1, 1, 1]>, <7, 6, 7, 1, 0, 0, 0, [1, 1, 1, 1, 1, 1, 1, 1]>, <8, 7, 8, 1, 0, 0, 0, [1, 1, 1, 1, 1, 1, 1, 1]>, <9, 8, 9, 1, 0, 0, 0, [1, 1, 1, 1, 1, 1, 1, 1]>, <10, 9, 10, 1, 0, 0, 0, [1, 1, 1, 1, 1, 1, 1, 1]>, <11, 10, 11, 1, 0, 0, 0, [1, 1, 1, 1, 1, 1, 1, 1]>, <12, 11, 12, 1, 0, 0, 0, [1, 1, 1, 1, 1, 1, 1, 1]>, <13, 12, 13, 1, 0, 0, 0, [1, 1, 1, 1, 1, 1, 1, 1]>, <14, 13, 14, 1, 0, 0, 0, [1, 1, 1, 1, 1, 1, 1, 1]>, <15, 14, 15, 1, 0, 0, 0, [1, 1, 1, 1, 1, 1, 1, 1]>, <16, 15, 16, 1, 0, 0, 0, [1, 1, 1, 1, 1, 1, 1, 1]>, <17, 16, 17, 1, 0, 0, 0, [1, 1, 1, 1, 1, 1, 1, 1]>, <18, 17, 18, 1, 0, 0, 0, [1, 1, 1, 1, 1, 1, 1, 1]>, <19, 18, 19, 1, 0, 0, 0, [1, 1, 1, 1, 1, 1, 1, 1]>, <20, 19, 20, 1, 0, 0, 0, [1, 1, 1, 1, 1, 1, 1, 1]>, <21, 20, 21, 1, 0, 0, 0, [1, 1, 1, 1, 1, 1, 1, 1]>, <22, 21, 22, 1, 0, 0, 0, [1, 1, 1, 1, 1, 1, 1, 1]>, <23, 22, 23, 1, 0, 0, 0, [1, 1, 1, 1, 1, 1, 1, 1]>, <24, 23, 24, 1, 0, 0, 0, [1, 1, 1, 1, 1, 1, 1, 1]>, <25, 24, 25, 1, 0, 0, 0, [1, 1, 1, 1, 1, 1, 1, 1]>, <26, 25, 26, 1, 0, 0, 0, [1, 1, 1, 1, 1, 1, 1, 1]>, <27, 26, 27, 1, 0, 0, 0, [1, 1, 1, 1, 1, 1, 1, 1]>, <28, 27, 28, 1, 0, 0, 0, [1, 1, 1, 1, 1, 1, 1, 1]>, <29, 28, 29, 1, 0, 0, 0, [1, 1, 1, 1, 1, 1, 1, 1]>, <30, 0, 13, 13, 1, 0, 0, [0, 1, 1, 1, 1, 0, 0, 0]>, <31, 1, 14, 13, 1, 0, 0, [0, 1, 1, 1, 1, 0, 0, 0]>, <32, 2, 15, 13, 1, 0, 0, [0, 1, 1, 1, 1, 0, 0, 0]>, <33, 3, 16, 13, 1, 0, 0, [0, 1, 1, 1, 1, 0, 0, 0]>, <34, 4, 17, 13, 1, 0, 0, [0, 1, 1, 1, 1, 0, 0, 0]>, <35, 5, 18, 13, 1, 0, 0, [0, 1, 1, 1, 1, 0, 0, 0]>, <36, 7, 20, 13, 1, 0, 0, [0, 1, 1, 1, 1, 0, 0, 0]>, <37, 8, 21, 13, 1, 0, 0, [0, 1, 1, 1, 1, 0, 0, 0]>, <38, 9, 22, 13, 1, 0, 0, [0, 1, 1, 1, 1, 0, 0, 0]>, <39, 10, 23, 13, 1, 0, 0, [0, 1, 1, 1, 1, 0, 0, 0]>, <40, 11, 24, 13, 1, 0, 0, [0, 1, 1, 1, 1, 0, 0, 0]>, <41, 12, 25, 13, 1, 0, 0, [0, 1, 1, 1, 1, 0, 0, 0]>, <42, 13, 26, 13, 1, 0, 0, [0, 1, 1, 1, 1, 0, 0, 0]>, <43, 14, 27, 13, 1, 0, 0, [0, 1, 1, 1, 1, 0, 0, 0]>, <44, 15, 28, 13, 1, 0, 0, [0, 1, 1, 1, 1, 0, 0, 0]>, <45, 16, 29, 13, 1, 0, 0, [0, 1, 1, 1, 1, 0, 0, 0]>, <46, 0, 15, 15, 2, 0, 1, [0, 0, 0, 0, 1, 1, 1, 1]>, <47, 1, 16, 15, 2, 0, 1, [0, 0, 0, 0, 1, 1, 1, 1]>, <48, 2, 17, 15, 2, 0, 1, [0, 0, 0, 0, 1, 1, 1, 1]>, <49, 3, 18, 15, 2, 0, 1, [0, 0, 0, 0, 1, 1, 1, 1]>, <50, 4, 19, 15, 2, 0, 1, [0, 0, 0, 0, 1, 1, 1, 1]>, <51, 5, 20, 15, 2, 0, 1, [0, 0, 0, 0, 1, 1, 1, 1]>, <52, 6, 21, 15, 2, 0, 1, [0, 0, 0, 0, 1, 1, 1, 1]>, <53, 7, 22, 15, 2, 0, 1, [0, 0, 0, 0, 1, 1, 1, 1]>, <54, 8, 23, 15, 2, 0, 1, [0, 0, 0, 0, 1, 1, 1, 1]>, <55, 9, 24, 15, 2, 0, 1, [0, 0, 0, 0, 1, 1, 1, 1]>, <56, 10, 25, 15, 2, 0, 1, [0, 0, 0, 0, 1, 1, 1, 1]>, <57, 11, 26, 15, 2, 0, 1, [0, 0, 0, 0, 1, 1, 1, 1]>, <58, 12, 27, 15, 2, 0, 1, [0, 0, 0, 0, 1, 1, 1, 1]>, <59, 13, 28, 15, 2, 0, 1, [0, 0, 0, 0, 1, 1, 1, 1]>, <60, 14, 29, 15, 2, 0, 1, [0, 0, 0, 0, 1, 1, 1, 1]>, <61, 0, 16, 16, 3, 0, 1, [0, 0, 1, 1, 1, 1, 0, 0]>, <62, 1, 17, 16, 3, 0, 1, [0, 0, 1, 1, 1, 1, 0, 0]>, <63, 2, 18, 16, 3, 0, 1, [0, 0, 1, 1, 1, 1, 0, 0]>, <64, 3, 19, 16, 3, 0, 1, [0, 0, 1, 1, 1, 1, 0, 0]>, <65, 4, 20, 16, 3, 0, 1, [0, 0, 1, 1, 1, 1, 0, 0]>, <66, 5, 21, 16, 3, 0, 1, [0, 0, 1, 1, 1, 1, 0, 0]>, <67, 6, 22, 16, 3, 0, 1, [0, 0, 1, 1, 1, 1, 0, 0]>, <68, 7, 23, 16, 3, 0, 1, [0, 0, 1, 1, 1, 1, 0, 0]>, <69, 8, 24, 16, 3, 0, 1, [0, 0, 1, 1, 1, 1, 0, 0]>, <70, 9, 25, 16, 3, 0, 1, [0, 0, 1, 1, 1, 1, 0, 0]>, <71, 10, 26, 16, 3, 0, 1, [0, 0, 1, 1, 1, 1, 0, 0]>, <72, 11, 27, 16, 3, 0, 1, [0, 0, 1, 1, 1, 1, 0, 0]>, <73, 12, 28, 16, 3, 0, 1, [0, 0, 1, 1, 1, 1, 0, 0]>, <74, 13, 29, 16, 3, 0, 1, [0, 0, 1, 1, 1, 1, 0, 0]>, <75, 0, 15, 15, 4, 0, 0, [1, 0, 0, 0, 0, 1, 1, 1]>, <76, 1, 16, 15, 4, 0, 0, [1, 0, 0, 0, 0, 1, 1, 1]>, <77, 2, 17, 15, 4, 0, 0, [1, 0, 0, 0, 0, 1, 1, 1]>, <78, 3, 18, 15, 4, 0, 0, [1, 0, 0, 0, 0, 1, 1, 1]>, <79, 4, 19, 15, 4, 0, 0, [1, 0, 0, 0, 0, 1, 1, 1]>, <80, 5, 20, 15, 4, 0, 0, [1, 0, 0, 0, 0, 1, 1, 1]>, <81, 6, 21, 15, 4, 0, 0, [1, 0, 0, 0, 0, 1, 1, 1]>, <82, 7, 22, 15, 4, 0, 0, [1, 0, 0, 0, 0, 1, 1, 1]>, <83, 8, 23, 15, 4, 0, 0, [1, 0, 0, 0, 0, 1, 1, 1]>, <84, 9, 24, 15, 4, 0, 0, [1, 0, 0, 0, 0, 1, 1, 1]>, <85, 10, 25, 15, 4, 0, 0, [1, 0, 0, 0, 0, 1, 1, 1]>, <86, 11, 26, 15, 4, 0, 0, [1, 0, 0, 0, 0, 1, 1, 1]>, <87, 12, 27, 15, 4, 0, 0, [1, 0, 0, 0, 0, 1, 1, 1]>, <88, 13, 28, 15, 4, 0, 0, [1, 0, 0, 0, 0, 1, 1, 1]>, <89, 14, 29, 15, 4, 0, 0, [1, 0, 0, 0, 0, 1, 1, 1]>, <90, 0, 14, 14, 5, 0, 0, [1, 1, 0, 0, 0, 0, 1, 1]>, <91, 1, 15, 14, 5, 0, 0, [1, 1, 0, 0, 0, 0, 1, 1]>, <92, 2, 16, 14, 5, 0, 0, [1, 1, 0, 0, 0, 0, 1, 1]>, <93, 3, 17, 14, 5, 0, 0, [1, 1, 0, 0, 0, 0, 1, 1]>, <94, 4, 18, 14, 5, 0, 0, [1, 1, 0, 0, 0, 0, 1, 1]>, <95, 5, 19, 14, 5, 0, 0, [1, 1, 0, 0, 0, 0, 1, 1]>, <96, 6, 20, 14, 5, 0, 0, [1, 1, 0, 0, 0, 0, 1, 1]>, <97, 7, 21, 14, 5, 0, 0, [1, 1, 0, 0, 0, 0, 1, 1]>, <98, 8, 22, 14, 5, 0, 0, [1, 1, 0, 0, 0, 0, 1, 1]>, <99, 9, 23, 14, 5, 0, 0, [1, 1, 0, 0, 0, 0, 1, 1]>, <100, 10, 24, 14, 5, 0, 0, [1, 1, 0, 0, 0, 0, 1, 1]>, <101, 11, 25, 14, 5, 0, 0, [1, 1, 0, 0, 0, 0, 1, 1]>, <102, 12, 26, 14, 5, 0, 0, [1, 1, 0, 0, 0, 0, 1, 1]>, <103, 13, 27, 14, 5, 0, 0, [1, 1, 0, 0, 0, 0, 1, 1]>, <104, 14, 28, 14, 5, 0, 0, [1, 1, 0, 0, 0, 0, 1, 1]>, <105, 15, 29, 14, 5, 0, 0, [1, 1, 0, 0, 0, 0, 1, 1]>, <106, 0, 17, 17, 6, 0, 0, [1, 1, 0, 0, 0, 0, 1, 1]>, <107, 1, 18, 17, 6, 0, 0, [1, 1, 0, 0, 0, 0, 1, 1]>, <108, 2, 19, 17, 6, 0, 0, [1, 1, 0, 0, 0, 0, 1, 1]>, <109, 3, 20, 17, 6, 0, 0, [1, 1, 0, 0, 0, 0, 1, 1]>, <110, 4, 21, 17, 6, 0, 0, [1, 1, 0, 0, 0, 0, 1, 1]>, <111, 5, 22, 17, 6, 0, 0, [1, 1, 0, 0, 0, 0, 1, 1]>, <112, 6, 23, 17, 6, 0, 0, [1, 1, 0, 0, 0, 0, 1, 1]>, <113, 7, 24, 17, 6, 0, 0, [1, 1, 0, 0, 0, 0, 1, 1]>, <114, 8, 25, 17, 6, 0, 0, [1, 1, 0, 0, 0, 0, 1, 1]>, <115, 9, 26, 17, 6, 0, 0, [1, 1, 0, 0, 0, 0, 1, 1]>, <116, 10, 27, 17, 6, 0, 0, [1, 1, 0, 0, 0, 0, 1, 1]>, <117, 11, 28, 17, 6, 0, 0, [1, 1, 0, 0, 0, 0, 1, 1]>, <118, 12, 29, 17, 6, 0, 0, [1, 1, 0, 0, 0, 0, 1, 1]>, <119, 0, 16, 16, 7, 0, 1, [0, 0, 1, 1, 1, 1, 0, 0]>, <120, 1, 17, 16, 7, 0, 1, [0, 0, 1, 1, 1, 1, 0, 0]>, <121, 2, 18, 16, 7, 0, 1, [0, 0, 1, 1, 1, 1, 0, 0]>, <122, 3, 19, 16, 7, 0, 1, [0, 0, 1, 1, 1, 1, 0, 0]>, <123, 4, 20, 16, 7, 0, 1, [0, 0, 1, 1, 1, 1, 0, 0]>, <124, 5, 21, 16, 7, 0, 1, [0, 0, 1, 1, 1, 1, 0, 0]>, <125, 6, 22, 16, 7, 0, 1, [0, 0, 1, 1, 1, 1, 0, 0]>, <126, 7, 23, 16, 7, 0, 1, [0, 0, 1, 1, 1, 1, 0, 0]>, <127, 8, 24, 16, 7, 0, 1, [0, 0, 1, 1, 1, 1, 0, 0]>, <128, 9, 25, 16, 7, 0, 1, [0, 0, 1, 1, 1, 1, 0, 0]>, <129, 10, 26, 16, 7, 0, 1, [0, 0, 1, 1, 1, 1, 0, 0]>, <130, 11, 27, 16, 7, 0, 1, [0, 0, 1, 1, 1, 1, 0, 0]>, <131, 12, 28, 16, 7, 0, 1, [0, 0, 1, 1, 1, 1, 0, 0]>, <132, 13, 29, 16, 7, 0, 1, [0, 0, 1, 1, 1, 1, 0, 0]>, <133, 0, 13, 13, 8, 0, 0, [0, 0, 0, 0, 1, 1, 1, 1]>, <134, 1, 14, 13, 8, 0, 0, [0, 0, 0, 0, 1, 1, 1, 1]>, <135, 2, 15, 13, 8, 0, 0, [0, 0, 0, 0, 1, 1, 1, 1]>, <136, 3, 16, 13, 8, 0, 0, [0, 0, 0, 0, 1, 1, 1, 1]>, <137, 4, 17, 13, 8, 0, 0, [0, 0, 0, 0, 1, 1, 1, 1]>, <138, 5, 18, 13, 8, 0, 0, [0, 0, 0, 0, 1, 1, 1, 1]>, <139, 7, 20, 13, 8, 0, 0, [0, 0, 0, 0, 1, 1, 1, 1]>, <140, 8, 21, 13, 8, 0, 0, [0, 0, 0, 0, 1, 1, 1, 1]>, <141, 9, 22, 13, 8, 0, 0, [0, 0, 0, 0, 1, 1, 1, 1]>, <142, 10, 23, 13, 8, 0, 0, [0, 0, 0, 0, 1, 1, 1, 1]>, <143, 11, 24, 13, 8, 0, 0, [0, 0, 0, 0, 1, 1, 1, 1]>, <144, 12, 25, 13, 8, 0, 0, [0, 0, 0, 0, 1, 1, 1, 1]>, <145, 13, 26, 13, 8, 0, 0, [0, 0, 0, 0, 1, 1, 1, 1]>, <146, 14, 27, 13, 8, 0, 0, [0, 0, 0, 0, 1, 1, 1, 1]>, <147, 15, 28, 13, 8, 0, 0, [0, 0, 0, 0, 1, 1, 1, 1]>, <148, 16, 29, 13, 8, 0, 0, [0, 0, 0, 0, 1, 1, 1, 1]>, <149, 0, 15, 15, 9, 0, 0, [1, 1, 1, 1, 0, 0, 0, 0]>, <150, 1, 16, 15, 9, 0, 0, [1, 1, 1, 1, 0, 0, 0, 0]>, <151, 2, 17, 15, 9, 0, 0, [1, 1, 1, 1, 0, 0, 0, 0]>, <152, 3, 18, 15, 9, 0, 0, [1, 1, 1, 1, 0, 0, 0, 0]>, <153, 4, 19, 15, 9, 0, 0, [1, 1, 1, 1, 0, 0, 0, 0]>, <154, 5, 20, 15, 9, 0, 0, [1, 1, 1, 1, 0, 0, 0, 0]>, <155, 6, 21, 15, 9, 0, 0, [1, 1, 1, 1, 0, 0, 0, 0]>, <156, 7, 22, 15, 9, 0, 0, [1, 1, 1, 1, 0, 0, 0, 0]>, <157, 8, 23, 15, 9, 0, 0, [1, 1, 1, 1, 0, 0, 0, 0]>, <158, 9, 24, 15, 9, 0, 0, [1, 1, 1, 1, 0, 0, 0, 0]>, <159, 10, 25, 15, 9, 0, 0, [1, 1, 1, 1, 0, 0, 0, 0]>, <160, 11, 26, 15, 9, 0, 0, [1, 1, 1, 1, 0, 0, 0, 0]>, <161, 12, 27, 15, 9, 0, 0, [1, 1, 1, 1, 0, 0, 0, 0]>, <162, 13, 28, 15, 9, 0, 0, [1, 1, 1, 1, 0, 0, 0, 0]>, <163, 14, 29, 15, 9, 0, 0, [1, 1, 1, 1, 0, 0, 0, 0]>, <164, 0, 14, 14, 10, 0, 1, [1, 1, 1, 1, 0, 0, 0, 0]>, <165, 1, 15, 14, 10, 0, 1, [1, 1, 1, 1, 0, 0, 0, 0]>, <166, 2, 16, 14, 10, 0, 1, [1, 1, 1, 1, 0, 0, 0, 0]>, <167, 3, 17, 14, 10, 0, 1, [1, 1, 1, 1, 0, 0, 0, 0]>, <168, 4, 18, 14, 10, 0, 1, [1, 1, 1, 1, 0, 0, 0, 0]>, <169, 5, 19, 14, 10, 0, 1, [1, 1, 1, 1, 0, 0, 0, 0]>, <170, 6, 20, 14, 10, 0, 1, [1, 1, 1, 1, 0, 0, 0, 0]>, <171, 7, 21, 14, 10, 0, 1, [1, 1, 1, 1, 0, 0, 0, 0]>, <172, 8, 22, 14, 10, 0, 1, [1, 1, 1, 1, 0, 0, 0, 0]>, <173, 9, 23, 14, 10, 0, 1, [1, 1, 1, 1, 0, 0, 0, 0]>, <174, 10, 24, 14, 10, 0, 1, [1, 1, 1, 1, 0, 0, 0, 0]>, <175, 11, 25, 14, 10, 0, 1, [1, 1, 1, 1, 0, 0, 0, 0]>, <176, 12, 26, 14, 10, 0, 1, [1, 1, 1, 1, 0, 0, 0, 0]>, <177, 13, 27, 14, 10, 0, 1, [1, 1, 1, 1, 0, 0, 0, 0]>, <178, 14, 28, 14, 10, 0, 1, [1, 1, 1, 1, 0, 0, 0, 0]>, <179, 15, 29, 14, 10, 0, 1, [1, 1, 1, 1, 0, 0, 0, 0]>, <180, 0, 15, 15, 11, 0, 1, [1, 0, 0, 0, 0, 1, 1, 1]>, <181, 1, 16, 15, 11, 0, 1, [1, 0, 0, 0, 0, 1, 1, 1]>, <182, 2, 17, 15, 11, 0, 1, [1, 0, 0, 0, 0, 1, 1, 1]>, <183, 3, 18, 15, 11, 0, 1, [1, 0, 0, 0, 0, 1, 1, 1]>, <184, 4, 19, 15, 11, 0, 1, [1, 0, 0, 0, 0, 1, 1, 1]>, <185, 5, 20, 15, 11, 0, 1, [1, 0, 0, 0, 0, 1, 1, 1]>, <186, 6, 21, 15, 11, 0, 1, [1, 0, 0, 0, 0, 1, 1, 1]>, <187, 7, 22, 15, 11, 0, 1, [1, 0, 0, 0, 0, 1, 1, 1]>, <188, 8, 23, 15, 11, 0, 1, [1, 0, 0, 0, 0, 1, 1, 1]>, <189, 9, 24, 15, 11, 0, 1, [1, 0, 0, 0, 0, 1, 1, 1]>, <190, 10, 25, 15, 11, 0, 1, [1, 0, 0, 0, 0, 1, 1, 1]>, <191, 11, 26, 15, 11, 0, 1, [1, 0, 0, 0, 0, 1, 1, 1]>, <192, 12, 27, 15, 11, 0, 1, [1, 0, 0, 0, 0, 1, 1, 1]>, <193, 13, 28, 15, 11, 0, 1, [1, 0, 0, 0, 0, 1, 1, 1]>, <194, 14, 29, 15, 11, 0, 1, [1, 0, 0, 0, 0, 1, 1, 1]>, <195, 0, 17, 17, 12, 0, 1, [0, 0, 0, 1, 1, 1, 1, 0]>, <196, 1, 18, 17, 12, 0, 1, [0, 0, 0, 1, 1, 1, 1, 0]>, <197, 2, 19, 17, 12, 0, 1, [0, 0, 0, 1, 1, 1, 1, 0]>, <198, 3, 20, 17, 12, 0, 1, [0, 0, 0, 1, 1, 1, 1, 0]>, <199, 4, 21, 17, 12, 0, 1, [0, 0, 0, 1, 1, 1, 1, 0]>, <200, 5, 22, 17, 12, 0, 1, [0, 0, 0, 1, 1, 1, 1, 0]>, <201, 6, 23, 17, 12, 0, 1, [0, 0, 0, 1, 1, 1, 1, 0]>, <202, 7, 24, 17, 12, 0, 1, [0, 0, 0, 1, 1, 1, 1, 0]>, <203, 8, 25, 17, 12, 0, 1, [0, 0, 0, 1, 1, 1, 1, 0]>, <204, 9, 26, 17, 12, 0, 1, [0, 0, 0, 1, 1, 1, 1, 0]>, <205, 10, 27, 17, 12, 0, 1, [0, 0, 0, 1, 1, 1, 1, 0]>, <206, 11, 28, 17, 12, 0, 1, [0, 0, 0, 1, 1, 1, 1, 0]>, <207, 12, 29, 17, 12, 0, 1, [0, 0, 0, 1, 1, 1, 1, 0]>, <208, 0, 18, 18, 13, 0, 0, [0, 1, 1, 1, 1, 0, 0, 0]>, <209, 1, 19, 18, 13, 0, 0, [0, 1, 1, 1, 1, 0, 0, 0]>, <210, 2, 20, 18, 13, 0, 0, [0, 1, 1, 1, 1, 0, 0, 0]>, <211, 3, 21, 18, 13, 0, 0, [0, 1, 1, 1, 1, 0, 0, 0]>, <212, 4, 22, 18, 13, 0, 0, [0, 1, 1, 1, 1, 0, 0, 0]>, <213, 5, 23, 18, 13, 0, 0, [0, 1, 1, 1, 1, 0, 0, 0]>, <214, 6, 24, 18, 13, 0, 0, [0, 1, 1, 1, 1, 0, 0, 0]>, <215, 7, 25, 18, 13, 0, 0, [0, 1, 1, 1, 1, 0, 0, 0]>, <216, 8, 26, 18, 13, 0, 0, [0, 1, 1, 1, 1, 0, 0, 0]>, <217, 9, 27, 18, 13, 0, 0, [0, 1, 1, 1, 1, 0, 0, 0]>, <218, 10, 28, 18, 13, 0, 0, [0, 1, 1, 1, 1, 0, 0, 0]>, <219, 11, 29, 18, 13, 0, 0, [0, 1, 1, 1, 1, 0, 0, 0]>, <220, 0, 15, 15, 14, 0, 1, [1, 0, 0, 0, 0, 1, 1, 1]>, <221, 1, 16, 15, 14, 0, 1, [1, 0, 0, 0, 0, 1, 1, 1]>, <222, 2, 17, 15, 14, 0, 1, [1, 0, 0, 0, 0, 1, 1, 1]>, <223, 3, 18, 15, 14, 0, 1, [1, 0, 0, 0, 0, 1, 1, 1]>, <224, 4, 19, 15, 14, 0, 1, [1, 0, 0, 0, 0, 1, 1, 1]>, <225, 5, 20, 15, 14, 0, 1, [1, 0, 0, 0, 0, 1, 1, 1]>, <226, 6, 21, 15, 14, 0, 1, [1, 0, 0, 0, 0, 1, 1, 1]>, <227, 7, 22, 15, 14, 0, 1, [1, 0, 0, 0, 0, 1, 1, 1]>, <228, 8, 23, 15, 14, 0, 1, [1, 0, 0, 0, 0, 1, 1, 1]>, <229, 9, 24, 15, 14, 0, 1, [1, 0, 0, 0, 0, 1, 1, 1]>, <230, 10, 25, 15, 14, 0, 1, [1, 0, 0, 0, 0, 1, 1, 1]>, <231, 11, 26, 15, 14, 0, 1, [1, 0, 0, 0, 0, 1, 1, 1]>, <232, 12, 27, 15, 14, 0, 1, [1, 0, 0, 0, 0, 1, 1, 1]>, <233, 13, 28, 15, 14, 0, 1, [1, 0, 0, 0, 0, 1, 1, 1]>, <234, 14, 29, 15, 14, 0, 1, [1, 0, 0, 0, 0, 1, 1, 1]>, <235, 0, 18, 18, 15, 0, 0, [1, 0, 0, 0, 0, 1, 1, 1]>, <236, 1, 19, 18, 15, 0, 0, [1, 0, 0, 0, 0, 1, 1, 1]>, <237, 2, 20, 18, 15, 0, 0, [1, 0, 0, 0, 0, 1, 1, 1]>, <238, 3, 21, 18, 15, 0, 0, [1, 0, 0, 0, 0, 1, 1, 1]>, <239, 4, 22, 18, 15, 0, 0, [1, 0, 0, 0, 0, 1, 1, 1]>, <240, 5, 23, 18, 15, 0, 0, [1, 0, 0, 0, 0, 1, 1, 1]>, <241, 6, 24, 18, 15, 0, 0, [1, 0, 0, 0, 0, 1, 1, 1]>, <242, 7, 25, 18, 15, 0, 0, [1, 0, 0, 0, 0, 1, 1, 1]>, <243, 8, 26, 18, 15, 0, 0, [1, 0, 0, 0, 0, 1, 1, 1]>, <244, 9, 27, 18, 15, 0, 0, [1, 0, 0, 0, 0, 1, 1, 1]>, <245, 10, 28, 18, 15, 0, 0, [1, 0, 0, 0, 0, 1, 1, 1]>, <246, 11, 29, 18, 15, 0, 0, [1, 0, 0, 0, 0, 1, 1, 1]>, <247, 0, 14, 14, 16, 0, 1, [1, 1, 1, 1, 0, 0, 0, 0]>, <248, 1, 15, 14, 16, 0, 1, [1, 1, 1, 1, 0, 0, 0, 0]>, <249, 2, 16, 14, 16, 0, 1, [1, 1, 1, 1, 0, 0, 0, 0]>, <250, 3, 17, 14, 16, 0, 1, [1, 1, 1, 1, 0, 0, 0, 0]>, <251, 4, 18, 14, 16, 0, 1, [1, 1, 1, 1, 0, 0, 0, 0]>, <252, 5, 19, 14, 16, 0, 1, [1, 1, 1, 1, 0, 0, 0, 0]>, <253, 6, 20, 14, 16, 0, 1, [1, 1, 1, 1, 0, 0, 0, 0]>, <254, 7, 21, 14, 16, 0, 1, [1, 1, 1, 1, 0, 0, 0, 0]>, <255, 8, 22, 14, 16, 0, 1, [1, 1, 1, 1, 0, 0, 0, 0]>, <256, 9, 23, 14, 16, 0, 1, [1, 1, 1, 1, 0, 0, 0, 0]>, <257, 10, 24, 14, 16, 0, 1, [1, 1, 1, 1, 0, 0, 0, 0]>, <258, 11, 25, 14, 16, 0, 1, [1, 1, 1, 1, 0, 0, 0, 0]>, <259, 12, 26, 14, 16, 0, 1, [1, 1, 1, 1, 0, 0, 0, 0]>, <260, 13, 27, 14, 16, 0, 1, [1, 1, 1, 1, 0, 0, 0, 0]>, <261, 14, 28, 14, 16, 0, 1, [1, 1, 1, 1, 0, 0, 0, 0]>, <262, 15, 29, 14, 16, 0, 1, [1, 1, 1, 1, 0, 0, 0, 0]>, <263, 0, 16, 16, 17, 1, 0, [0, 1, 1, 1, 1, 0, 0, 0]>, <264, 1, 17, 16, 17, 1, 0, [0, 1, 1, 1, 1, 0, 0, 0]>, <265, 2, 18, 16, 17, 1, 0, [0, 1, 1, 1, 1, 0, 0, 0]>, <266, 3, 19, 16, 17, 1, 0, [0, 1, 1, 1, 1, 0, 0, 0]>, <267, 4, 20, 16, 17, 1, 0, [0, 1, 1, 1, 1, 0, 0, 0]>, <268, 5, 21, 16, 17, 1, 0, [0, 1, 1, 1, 1, 0, 0, 0]>, <269, 6, 22, 16, 17, 1, 0, [0, 1, 1, 1, 1, 0, 0, 0]>, <270, 7, 23, 16, 17, 1, 0, [0, 1, 1, 1, 1, 0, 0, 0]>, <271, 8, 24, 16, 17, 1, 0, [0, 1, 1, 1, 1, 0, 0, 0]>, <272, 9, 25, 16, 17, 1, 0, [0, 1, 1, 1, 1, 0, 0, 0]>, <273, 10, 26, 16, 17, 1, 0, [0, 1, 1, 1, 1, 0, 0, 0]>, <274, 11, 27, 16, 17, 1, 0, [0, 1, 1, 1, 1, 0, 0, 0]>, <275, 12, 28, 16, 17, 1, 0, [0, 1, 1, 1, 1, 0, 0, 0]>, <276, 13, 29, 16, 17, 1, 0, [0, 1, 1, 1, 1, 0, 0, 0]>, <277, 0, 15, 15, 18, 0, 1, [1, 1, 1, 1, 0, 0, 0, 0]>, <278, 1, 16, 15, 18, 0, 1, [1, 1, 1, 1, 0, 0, 0, 0]>, <279, 2, 17, 15, 18, 0, 1, [1, 1, 1, 1, 0, 0, 0, 0]>, <280, 3, 18, 15, 18, 0, 1, [1, 1, 1, 1, 0, 0, 0, 0]>, <281, 4, 19, 15, 18, 0, 1, [1, 1, 1, 1, 0, 0, 0, 0]>, <282, 5, 20, 15, 18, 0, 1, [1, 1, 1, 1, 0, 0, 0, 0]>, <283, 6, 21, 15, 18, 0, 1, [1, 1, 1, 1, 0, 0, 0, 0]>, <284, 7, 22, 15, 18, 0, 1, [1, 1, 1, 1, 0, 0, 0, 0]>, <285, 8, 23, 15, 18, 0, 1, [1, 1, 1, 1, 0, 0, 0, 0]>, <286, 9, 24, 15, 18, 0, 1, [1, 1, 1, 1, 0, 0, 0, 0]>, <287, 10, 25, 15, 18, 0, 1, [1, 1, 1, 1, 0, 0, 0, 0]>, <288, 11, 26, 15, 18, 0, 1, [1, 1, 1, 1, 0, 0, 0, 0]>, <289, 12, 27, 15, 18, 0, 1, [1, 1, 1, 1, 0, 0, 0, 0]>, <290, 13, 28, 15, 18, 0, 1, [1, 1, 1, 1, 0, 0, 0, 0]>, <291, 14, 29, 15, 18, 0, 1, [1, 1, 1, 1, 0, 0, 0, 0]>, <292, 0, 15, 15, 19, 0, 1, [0, 0, 1, 1, 1, 1, 0, 0]>, <293, 1, 16, 15, 19, 0, 1, [0, 0, 1, 1, 1, 1, 0, 0]>, <294, 2, 17, 15, 19, 0, 1, [0, 0, 1, 1, 1, 1, 0, 0]>, <295, 3, 18, 15, 19, 0, 1, [0, 0, 1, 1, 1, 1, 0, 0]>, <296, 4, 19, 15, 19, 0, 1, [0, 0, 1, 1, 1, 1, 0, 0]>, <297, 5, 20, 15, 19, 0, 1, [0, 0, 1, 1, 1, 1, 0, 0]>, <298, 6, 21, 15, 19, 0, 1, [0, 0, 1, 1, 1, 1, 0, 0]>, <299, 7, 22, 15, 19, 0, 1, [0, 0, 1, 1, 1, 1, 0, 0]>, <300, 8, 23, 15, 19, 0, 1, [0, 0, 1, 1, 1, 1, 0, 0]>, <301, 9, 24, 15, 19, 0, 1, [0, 0, 1, 1, 1, 1, 0, 0]>, <302, 10, 25, 15, 19, 0, 1, [0, 0, 1, 1, 1, 1, 0, 0]>, <303, 11, 26, 15, 19, 0, 1, [0, 0, 1, 1, 1, 1, 0, 0]>, <304, 12, 27, 15, 19, 0, 1, [0, 0, 1, 1, 1, 1, 0, 0]>, <305, 13, 28, 15, 19, 0, 1, [0, 0, 1, 1, 1, 1, 0, 0]>, <306, 14, 29, 15, 19, 0, 1, [0, 0, 1, 1, 1, 1, 0, 0]>, <307, 0, 17, 17, 20, 0, 0, [1, 1, 1, 0, 0, 0, 0, 1]>, <308, 1, 18, 17, 20, 0, 0, [1, 1, 1, 0, 0, 0, 0, 1]>, <309, 2, 19, 17, 20, 0, 0, [1, 1, 1, 0, 0, 0, 0, 1]>, <310, 3, 20, 17, 20, 0, 0, [1, 1, 1, 0, 0, 0, 0, 1]>, <311, 4, 21, 17, 20, 0, 0, [1, 1, 1, 0, 0, 0, 0, 1]>, <312, 5, 22, 17, 20, 0, 0, [1, 1, 1, 0, 0, 0, 0, 1]>, <313, 6, 23, 17, 20, 0, 0, [1, 1, 1, 0, 0, 0, 0, 1]>, <314, 7, 24, 17, 20, 0, 0, [1, 1, 1, 0, 0, 0, 0, 1]>, <315, 8, 25, 17, 20, 0, 0, [1, 1, 1, 0, 0, 0, 0, 1]>, <316, 9, 26, 17, 20, 0, 0, [1, 1, 1, 0, 0, 0, 0, 1]>, <317, 10, 27, 17, 20, 0, 0, [1, 1, 1, 0, 0, 0, 0, 1]>, <318, 11, 28, 17, 20, 0, 0, [1, 1, 1, 0, 0, 0, 0, 1]>, <319, 12, 29, 17, 20, 0, 0, [1, 1, 1, 0, 0, 0, 0, 1]>, <320, 0, 15, 15, 21, 0, 0, [1, 1, 0, 0, 0, 0, 1, 1]>, <321, 1, 16, 15, 21, 0, 0, [1, 1, 0, 0, 0, 0, 1, 1]>, <322, 2, 17, 15, 21, 0, 0, [1, 1, 0, 0, 0, 0, 1, 1]>, <323, 3, 18, 15, 21, 0, 0, [1, 1, 0, 0, 0, 0, 1, 1]>, <324, 4, 19, 15, 21, 0, 0, [1, 1, 0, 0, 0, 0, 1, 1]>, <325, 5, 20, 15, 21, 0, 0, [1, 1, 0, 0, 0, 0, 1, 1]>, <326, 6, 21, 15, 21, 0, 0, [1, 1, 0, 0, 0, 0, 1, 1]>, <327, 7, 22, 15, 21, 0, 0, [1, 1, 0, 0, 0, 0, 1, 1]>, <328, 8, 23, 15, 21, 0, 0, [1, 1, 0, 0, 0, 0, 1, 1]>, <329, 9, 24, 15, 21, 0, 0, [1, 1, 0, 0, 0, 0, 1, 1]>, <330, 10, 25, 15, 21, 0, 0, [1, 1, 0, 0, 0, 0, 1, 1]>, <331, 11, 26, 15, 21, 0, 0, [1, 1, 0, 0, 0, 0, 1, 1]>, <332, 12, 27, 15, 21, 0, 0, [1, 1, 0, 0, 0, 0, 1, 1]>, <333, 13, 28, 15, 21, 0, 0, [1, 1, 0, 0, 0, 0, 1, 1]>, <334, 14, 29, 15, 21, 0, 0, [1, 1, 0, 0, 0, 0, 1, 1]>};
